80 9429078
43 45 56 28 22 15 13 4 30 6 69 10 9 40 57 77 75 79 73 63 17 71 16 34 76 60 42 46 67 47 18 78 80 2 35 36 58 19 53 41 12 27 44 33 23 54 8 24 70 55 32 61 26 21 59 65 68 52 29 1 25 48 5 14 62 3 37 39 51 11 72 49 50 74 20 38 7 66 31 64 
